414 416 415 352 351 350 349 348 347 362 361 363 364 346 345 344 343 341 340 330 331 332 333 339 338 337 336 335 334 283 284 285 286 287 280 281 282 279 278 288 289 290 277 276 275 274 273 292 291 295 296 294 293 270 268 269 272 271 267 266 265 264 263 262 261 260 259 258 299 298 297 321 320 319 317 318 305 306 304 303 307 506 507 508 302 301 300 257 256 255 253 254 252 251 250 249 248 241 242 243 244 245 247 246 238 239 240 237 509 510 511 513 512 527 526 523 521 522 514 515 516 517 520 519 518 495 494 472 471 470 469 474 473 493 524 525 492 491 490 529 528 236 235 234 232 233 231 230 533 532 531 530 489 488 534 535 487 486 485 484 536 483 481 482 475 476 480 479 477 478 539 537 538 540 188 187 178 177 176 175 174 173 172 170 171 169 180 181 179 182 183 185 186 229 228 227 189 225 226 190 191 192 184 197 196 195 194 193 219 218 220 221 222 224 223 217 216 215 214 213 212 211 210 209 208 207 206 205 198 199 200 201 202 204 203 165 164 166 167 163 168 162 161 160 159 156 155 154 153 157 145 144 143 142 146 147 148 152 149 150 151 141 140 139 136 135 158 134 133 132 131 113 112 114 111 110 109 108 107 542 541 543 544 545 546 547 103 104 105 106 117 115 116 128 129 130 137 138 127 126 125 124 69 70 68 67 66 65 72 71 123 122 121 120 118 119 73 74 75 76 64 62 63 61 60 59 81 80 79 78 77 88 89 90 87 86 82 83 57 58 56 55 53 54 52 50 51 84 85 91 92 93 94 95 96 97 98 99 100 102 101 552 553 554 555 45 46 47 48 49 43 44 556 557 558 559 550 551 548 549 564 566 565 563 562 561 560 34 33 35 40 41 42 39 38 37 36 32 30 31 22 23 12 13 21 24 25 26 27 28 29 567 570 569 568 20 19 16 15 14 11 10 9 18 17 8 7 6 5 4 3 2 1 0 573 572 571 468 467 466 465 464 496 497 463 462 461 460 459 458 457 456 455 454 438 437 436 435 434 433 432 430 429 428 431 445 444 443 439 442 446 447 448 449 450 451 441 440 453 452 499 500 501 498 502 503 504 505 308 309 310 311 312 313 316 314 315 374 373 322 323 324 325 326 327 328 329 342 366 367 365 368 369 370 372 371 396 395 375 376 377 378 379 380 381 390 392 391 393 394 397 398 399 400 404 405 406 407 408 409 384 383 385 387 388 389 386 382 425 424 426 427 423 422 421 420 419 417 418 410 403 402 401 360 359 358 357 354 353 355 356 412 411 413